log/Reading instance from file data/g07.dat
Number of nodes: 301
Number of edges: 3300
initialize CPLEX ... done.
Calling CPLEX solve ...
Version identifier: 12.10.0.0 | 2019-11-26 | 843d4de
CPXPARAM_Threads                                 1
CPXPARAM_TimeLimit                               3600
CPXPARAM_WorkMem                                 8192
Tried aggregator 1 time.
MIP Presolve eliminated 603 rows and 302 columns.
MIP Presolve modified 7800 coefficients.
Reduced MIP has 7203 rows, 6900 columns, and 38700 nonzeros.
Reduced MIP has 6600 binaries, 300 generals, 0 SOSs, and 0 indicators.
Presolve time = 0.03 sec. (26.37 ticks)
Probing time = 0.01 sec. (4.18 ticks)
Tried aggregator 1 time.
Detecting symmetries...
Reduced MIP has 7203 rows, 6900 columns, and 38700 nonzeros.
Reduced MIP has 6600 binaries, 300 generals, 0 SOSs, and 0 indicators.
Presolve time = 0.02 sec. (23.63 ticks)
Probing time = 0.01 sec. (3.69 ticks)
Clique table members: 9301.
MIP emphasis: balance optimality and feasibility.
MIP search method: dynamic search.
Parallel mode: none, using 1 thread.
Root relaxation solution time = 0.01 sec. (18.25 ticks)

        Nodes                                         Cuts/
   Node  Left     Objective  IInf  Best Integer    Best Bound    ItCnt     Gap

      0     0      385.9180   116                    385.9180      422         
      0     0      712.0405   116                   Cuts: 257      870         
      0     0      857.3006   116                   Cuts: 200     1132         
      0     0      994.3344   116                   Cuts: 170     1334         
      0     0     1076.3137   116                   Cuts: 148     1688         
      0     0     1151.2147   116                   Cuts: 114     1857         
Detecting symmetries...
      0     0     1193.5220   116                    Cuts: 67     1960         
      0     0     1208.6651   116                    Cuts: 92     2048         
      0     0     1224.4083   116                    Cuts: 60     2162         
      0     0     1235.0285   116                    Cuts: 48     2242         
      0     0     1239.8058   116                    Cuts: 55     2301         
      0     0     1245.5512   116                    Cuts: 45     2375         
      0     0     1248.4768   116                    Cuts: 40     2428         
      0     0     1253.6469   116                    Cuts: 49     2512         
      0     0     1256.5534   116                    Cuts: 45     2556         
      0     0     1261.6886   116                    Cuts: 56     2632         
      0     0     1267.5764   116                    Cuts: 31     2672         
      0     0     1271.8194   116                    Cuts: 82     2727         
      0     0     1273.6980   116                    Cuts: 46     2794         
      0     0     1276.5187   116                    Cuts: 86     2845         
      0     0     1282.9128   116                    Cuts: 40     2900         
      0     0     1284.5063   116                    Cuts: 24     2958         
      0     0     1286.1466   116                    Cuts: 76     2999         
      0     0     1289.2184   116                    Cuts: 56     3050         
      0     0     1289.6375   116                    Cuts: 14     3092         
      0     0     1290.8344   116                    Cuts: 27     3138         
      0     0     1293.3667   116                    Cuts: 12     3180         
      0     0     1294.5833   116                    Cuts: 29     3211         
      0     0     1295.0815   116                    Cuts: 20     3243         
      0     0     1299.1053   116                    Cuts: 28     3301         
      0     0     1300.1186   116                    Cuts: 11     3329         
      0     0     1300.2201   116                    Cuts: 26     3351         
      0     0     1301.0000   116                    Cuts: 24     3379         
      0     0     1301.1795   116                    Cuts: 44     3422         
Detecting symmetries...
      0     2     1301.1795    74                   1301.2000     3422         
Elapsed time = 2.30 sec. (3414.99 ticks, tree = 0.01 MB, solutions = 0)
     30    32     1331.1613    34                   1301.2000     4380         
     66    68     1366.5000    31                   1301.2000     5776         
     92    94     1434.7172    26                   1301.2000     6504         
    122   124     1530.1989    59                   1301.2000     7633         
*   152   149      integral     0     2083.0000     1301.2000     9198   37.53%
    180   177     1319.3037    50     2083.0000     1301.3684    10145   37.52%
    210   207     1330.3037    53     2083.0000     1301.3684    11653   37.52%
    229   226     1457.1455    90     2083.0000     1301.3684    13107   37.52%
*   250   200      integral     0     1488.0000     1301.3684    13572   12.54%
    280   229     1445.7966    71     1488.0000     1301.3684    14393   12.54%

Performing restart 1

Repeating presolve.
Tried aggregator 2 times.
MIP Presolve eliminated 4664 rows and 4655 columns.
MIP Presolve modified 2835 coefficients.
Aggregator did 10 substitutions.
Reduced MIP has 2528 rows, 2235 columns, and 9394 nonzeros.
Reduced MIP has 1941 binaries, 294 generals, 0 SOSs, and 0 indicators.
Presolve time = 0.02 sec. (20.60 ticks)
Tried aggregator 1 time.
Reduced MIP has 2528 rows, 2235 columns, and 9394 nonzeros.
Reduced MIP has 1941 binaries, 294 generals, 0 SOSs, and 0 indicators.
Presolve time = 0.01 sec. (6.85 ticks)
Represolve time = 0.05 sec. (52.09 ticks)
    477     0     1303.4850    55     1488.0000      Cuts: 32    19287   12.40%
    477     0     1310.3750    55     1488.0000      Cuts: 42    19318   11.94%
    477     0     1312.4375    55     1488.0000      Cuts: 31    19333   11.80%
    477     0     1312.5738    55     1488.0000      Cuts: 33    19355   11.79%
    477     0     1314.5000    55     1488.0000      Cuts: 22    19370   11.66%
    477     0     1318.6330    55     1488.0000      Cuts: 20    19398   11.38%
    477     0     1321.5307    55     1488.0000      Cuts: 23    19421   11.19%
    477     0     1322.1578    55     1488.0000      Cuts: 26    19442   11.15%
    477     0     1323.1250    55     1488.0000      Cuts: 35    19452   11.08%
    477     0     1324.1250    55     1488.0000      Cuts: 14    19469   11.01%
    477     0     1324.1250    55     1488.0000      Cuts: 14    19476   11.01%
    477     0     1324.1250    55     1488.0000   ZeroHalf: 6    19477   11.01%
    477     0     1324.1250    55     1488.0000      Cuts: 19    19493   11.01%
    477     0     1324.1409    55     1488.0000      Cuts: 32    19520   11.01%
    477     0     1324.4525    55     1488.0000      Cuts: 13    19536   10.99%
    477     0     1325.0430    55     1488.0000      Cuts: 22    19547   10.95%
    477     0     1325.6745    55     1488.0000      Cuts: 10    19564   10.91%
    477     0     1325.6747    55     1488.0000      Cuts: 12    19568   10.91%
*   477+    0                         1415.0000     1325.6747             6.31%
    477     0  -1.00000e+75     0     1415.0000     1325.6747    19568    6.31%
    477     2     1325.6747    95     1415.0000     1326.4381    19568    6.26%
Elapsed time = 5.75 sec. (8139.60 ticks, tree = 0.01 MB, solutions = 3)
    491    16     1344.5154    59     1415.0000     1328.3750    20096    6.12%
    520    45     1344.7803   106     1415.0000     1328.3750    21347    6.12%
    597   102     1342.1410    46     1415.0000     1331.2500    23566    5.92%
    655   150     1333.1966   105     1415.0000     1331.3266    25101    5.91%
*   724   186      integral     0     1374.0000     1332.0000    27163    3.06%
*   737    35      integral     0     1335.0000     1332.0000    27584    0.22%

GUB cover cuts applied:  5
Clique cuts applied:  269
Cover cuts applied:  50
Implied bound cuts applied:  146
Flow cuts applied:  10
Mixed integer rounding cuts applied:  125
Zero-half cuts applied:  59
Lift and project cuts applied:  14
Gomory fractional cuts applied:  19

Root node processing (before b&c):
  Real time             =    2.28 sec. (3397.42 ticks)
Sequential b&c:
  Real time             =    7.10 sec. (9835.07 ticks)
                          ------------
Total (root+branch&cut) =    9.38 sec. (13232.49 ticks)
SOLUTION:

x(0,62)[0..1]  = 1
x(5,210)[0..1]  = 1
x(10,44)[0..1]  = 1
x(22,105)[0..1]  = 1
x(33,172)[0..1]  = 1
x(44,260)[0..1]  = 1
x(44,254)[0..1]  = 1
x(61,264)[0..1]  = 1
x(62,276)[0..1]  = 1
x(72,268)[0..1]  = 1
x(74,87)[0..1]  = 1
x(83,287)[0..1]  = 1
x(91,135)[0..1]  = 1
x(103,111)[0..1]  = 1
x(105,291)[0..1]  = 1
x(130,270)[0..1]  = 1
x(135,217)[0..1]  = 1
x(147,234)[0..1]  = 1
x(171,225)[0..1]  = 1
x(210,229)[0..1]  = 1
x(225,263)[0..1]  = 1
x(225,269)[0..1]  = 1
x(291,299)[0..1]  = 1
x(44,5)[0..1]  = 1
x(86,10)[0..1]  = 1
x(65,22)[0..1]  = 1
x(171,23)[0..1]  = 1
x(33,29)[0..1]  = 1
x(229,33)[0..1]  = 1
x(249,49)[0..1]  = 1
x(276,61)[0..1]  = 1
x(264,65)[0..1]  = 1
x(103,72)[0..1]  = 1
x(203,73)[0..1]  = 1
x(136,74)[0..1]  = 1
x(210,76)[0..1]  = 1
x(147,83)[0..1]  = 1
x(268,86)[0..1]  = 1
x(147,91)[0..1]  = 1
x(203,102)[0..1]  = 1
x(183,103)[0..1]  = 1
x(177,130)[0..1]  = 1
x(287,136)[0..1]  = 1
x(210,140)[0..1]  = 1
x(263,147)[0..1]  = 1
x(254,149)[0..1]  = 1
x(291,164)[0..1]  = 1
x(217,168)[0..1]  = 1
x(260,171)[0..1]  = 1
x(263,177)[0..1]  = 1
x(299,183)[0..1]  = 1
x(287,198)[0..1]  = 1
x(270,203)[0..1]  = 1
x(225,207)[0..1]  = 1
x(217,212)[0..1]  = 1
x(299,249)[0..1]  = 1
z(5)[0..1]  = 1
z(10)[0..1]  = 1
z(22)[0..1]  = 1
z(23)[0..1]  = 1
z(29)[0..1]  = 1
z(33)[0..1]  = 1
z(44)[0..1]  = 1
z(49)[0..1]  = 1
z(61)[0..1]  = 1
z(62)[0..1]  = 1
z(65)[0..1]  = 1
z(72)[0..1]  = 1
z(73)[0..1]  = 1
z(74)[0..1]  = 1
z(76)[0..1]  = 1
z(83)[0..1]  = 1
z(86)[0..1]  = 1
z(87)[0..1]  = 1
z(91)[0..1]  = 1
z(102)[0..1]  = 1
z(103)[0..1]  = 1
z(105)[0..1]  = 1
z(111)[0..1]  = 1
z(130)[0..1]  = 1
z(135)[0..1]  = 1
z(136)[0..1]  = 1
z(140)[0..1]  = 1
z(147)[0..1]  = 1
z(149)[0..1]  = 1
z(164)[0..1]  = 1
z(168)[0..1]  = 1
z(171)[0..1]  = 1
z(172)[0..1]  = 1
z(177)[0..1]  = 1
z(183)[0..1]  = 1
z(198)[0..1]  = 1
z(203)[0..1]  = 1
z(207)[0..1]  = 1
z(210)[0..1]  = 1
z(212)[0..1]  = 1
z(217)[0..1]  = 1
z(225)[0..1]  = 1
z(229)[0..1]  = 1
z(234)[0..1]  = 1
z(249)[0..1]  = 1
z(254)[0..1]  = 1
z(260)[0..1]  = 1
z(263)[0..1]  = 1
z(264)[0..1]  = 1
z(268)[0..1]  = 1
z(269)[0..1]  = 1
z(270)[0..1]  = 1
z(276)[0..1]  = 1
z(287)[0..1]  = 1
z(291)[0..1]  = 1
z(299)[0..1]  = 1


CPLEX finished.

CPLEX status: Optimal
Branch-and-Bound nodes: 819
Objective value: 1335
CPU time: 9.39

